(set-option :produce-models true)
(set-logic QF_UFLIA)
(declare-fun m_4_1_p1 () Bool)
(declare-fun m_4_1_p2 () Bool)
(declare-fun m_3_2_p1 () Bool)
(declare-fun m_3_2_p2 () Bool)
(declare-fun m_2_4_p1 () Bool)
(declare-fun m_2_4_p2 () Bool)
(declare-fun m_1_3_p1 () Bool)
(declare-fun m_1_3_p2 () Bool)
(declare-fun m_4_3_p1 () Bool)
(declare-fun m_4_3_p2 () Bool)
(declare-fun m_2_1_p1 () Bool)
(declare-fun m_2_1_p2 () Bool)
(assert m_4_1_p1)
(assert (not m_4_1_p2))
(assert (not m_3_2_p1))
(assert m_3_2_p2)
(assert (= 1 (+ (ite m_4_1_p1 1 0) (ite m_4_1_p2 1 0))))
(assert (= 1 (+ (ite m_3_2_p1 1 0) (ite m_3_2_p2 1 0))))
(assert (= 1 (+ (ite m_2_4_p1 1 0) (ite m_2_4_p2 1 0))))
(assert (= 1 (+ (ite m_1_3_p1 1 0) (ite m_1_3_p2 1 0))))
(assert (= 1 (+ (ite m_4_3_p1 1 0) (ite m_4_3_p2 1 0))))
(assert (= 1 (+ (ite m_2_1_p1 1 0) (ite m_2_1_p2 1 0))))

(assert (= 1 (+ (ite m_4_1_p1 1 0) (ite m_3_2_p1 1 0))))
(assert (= 1 (+ (ite m_4_1_p2 1 0) (ite m_3_2_p2 1 0))))
(assert (= 1 (+ (ite m_2_4_p1 1 0) (ite m_1_3_p1 1 0))))
(assert (= 1 (+ (ite m_2_4_p2 1 0) (ite m_1_3_p2 1 0))))
(assert (= 1 (+ (ite m_4_3_p1 1 0) (ite m_2_1_p1 1 0))))
(assert (= 1 (+ (ite m_4_3_p2 1 0) (ite m_2_1_p2 1 0))))

(assert (<= (+ (ite m_4_1_p1 1 0) (ite m_1_3_p1 1 0) (ite m_2_1_p1 1 0)) 2))
(assert (<= (+ (ite m_4_1_p2 1 0) (ite m_1_3_p2 1 0) (ite m_2_1_p2 1 0)) 2))
(assert (<= (+ (ite m_3_2_p1 1 0) (ite m_2_4_p1 1 0) (ite m_2_1_p1 1 0)) 2))
(assert (<= (+ (ite m_3_2_p2 1 0) (ite m_2_4_p2 1 0) (ite m_2_1_p2 1 0)) 2))
(assert (<= (+ (ite m_3_2_p1 1 0) (ite m_1_3_p1 1 0) (ite m_4_3_p1 1 0)) 2))
(assert (<= (+ (ite m_3_2_p2 1 0) (ite m_1_3_p2 1 0) (ite m_4_3_p2 1 0)) 2))
(assert (<= (+ (ite m_4_1_p1 1 0) (ite m_2_4_p1 1 0) (ite m_4_3_p1 1 0)) 2))
(assert (<= (+ (ite m_4_1_p2 1 0) (ite m_2_4_p2 1 0) (ite m_4_3_p2 1 0)) 2))
(check-sat)
(get-value (m_4_1_p1))
(get-value (m_4_1_p2))
(get-value (m_3_2_p1))
(get-value (m_3_2_p2))
(get-value (m_2_4_p1))
(get-value (m_2_4_p2))
(get-value (m_1_3_p1))
(get-value (m_1_3_p2))
(get-value (m_4_3_p1))
(get-value (m_4_3_p2))
(get-value (m_2_1_p1))
(get-value (m_2_1_p2))
